(set-logic QF_S)
(declare-fun var0 () String)
(declare-fun var1 () String)
(declare-fun var2 () String)
(declare-fun var3 () String)
(declare-fun var4 () String)
(declare-fun var5 () String)
(declare-fun var6 () String)
(declare-fun var7 () String)
(declare-fun var8 () String)
(declare-fun var9 () String)
(declare-fun var10 () String)
(declare-fun var11 () String)
(declare-fun var12 () String)
(declare-fun var13 () String)
(declare-fun var14 () String)
(declare-fun var15 () String)
(declare-fun var16 () String)
(declare-fun var17 () String)
(declare-fun var18 () String)
(declare-fun var19 () String)
(declare-fun var20 () String)
(declare-fun var21 () String)
(declare-fun var22 () String)
(declare-fun var23 () String)
(declare-fun var24 () String)
(declare-fun var25 () String)
(declare-fun var26 () String)
(declare-fun var27 () String)
(declare-fun var28 () String)
(declare-fun var29 () String)
(declare-fun var30 () String)
(declare-fun var31 () String)
(declare-fun var32 () String)
(declare-fun var33 () String)
(declare-fun var34 () String)
(declare-fun var35 () String)
(declare-fun var36 () String)
(declare-fun var37 () String)
(declare-fun var38 () String)
(declare-fun var39 () String)
(declare-fun var40 () String)
(declare-fun var41 () String)
(declare-fun var42 () String)
(declare-fun var43 () String)
(declare-fun var44 () String)
(declare-fun var45 () String)
(declare-fun var46 () String)
(declare-fun var47 () String)
(declare-fun var48 () String)
(declare-fun var49 () String)
(declare-fun var50 () String)
(declare-fun var51 () String)
(declare-fun var52 () String)
(declare-fun var53 () String)
(declare-fun var54 () String)
(declare-fun var55 () String)
(declare-fun var56 () String)
(declare-fun var57 () String)
(declare-fun var58 () String)
(declare-fun var59 () String)
(declare-fun var60 () String)
(assert (= var0 (Concat var1 var2)))
(assert (= var2 (Concat var3 var4)))
(assert (= var4 (Concat var5 var6)))
(assert (= var6 (Concat var7 var8)))
(assert (= var8 (Concat var9 var10)))
(assert (= var10 (Concat var11 var12)))
(assert (= var12 (Concat var13 var14)))
(assert (= var14 (Concat var15 var16)))
(assert (= var16 (Concat var17 var18)))
(assert (= var18 (Concat var19 var20)))
(assert (= var20 (Concat var21 var22)))
(assert (= var22 (Concat var23 var24)))
(assert (= var24 (Concat var25 var26)))
(assert (= var26 (Concat var27 var28)))
(assert (= var28 (Concat var29 var30)))
(assert (= var30 (Concat var31 var32)))
(assert (= var32 (Concat var33 var34)))
(assert (= var34 (Concat var35 var36)))
(assert (= var36 (Concat var37 var38)))
(assert (= var38 (Concat var39 var40)))
(assert (= var40 (Concat var41 var42)))
(assert (= var42 (Concat var43 var44)))
(assert (= var44 (Concat var45 var46)))
(assert (= var46 (Concat var47 var48)))
(assert (= var48 (Concat var49 var50)))
(assert (= var50 (Concat var51 var52)))
(assert (= var52 (Concat var53 var54)))
(assert (= var54 (Concat var55 var56)))
(assert (= var56 (Concat var57 var58)))
(assert (= var58 (Concat var59 var60)))
(assert (= var0 "solution"))
(assert (= "." (CharAt var15 792)))
(assert (= ";" (CharAt var50 567)))
(assert (= "g" (CharAt var55 861)))
(assert (= "?" (CharAt var44 141)))
(assert (= "V" (CharAt var46 59)))
(assert (= "v" (CharAt var59 161)))
(assert (= "'" (CharAt var0 139)))
(assert (= "j" (CharAt var39 812)))
(assert (= "d" (CharAt var50 106)))
(assert (= "c" (CharAt var46 536)))
(assert (= "t" (CharAt var16 77)))
(assert (= "r" (CharAt var6 227)))
(assert (= "I" (CharAt var43 357)))
(assert (= "r" (CharAt var38 963)))
(assert (= "a" (CharAt var25 44)))
(assert (= "/" (CharAt var20 426)))
(assert (= "B" (CharAt var6 331)))
(assert (= "M" (CharAt var52 322)))
(assert (= "M" (CharAt var6 739)))
(assert (= "D" (CharAt var14 981)))
(assert (= "0" (CharAt var2 544)))
(assert (= "[" (CharAt var1 605)))
(assert (= "\"" (CharAt var31 272)))
(assert (= "s" (CharAt var37 940)))
(assert (= "t" (CharAt var22 750)))
(assert (= "^" (CharAt var41 755)))
(assert (= "3" (CharAt var46 322)))
(assert (= "8" (CharAt var4 887)))
(assert (= "." (CharAt var40 740)))
(assert (= "&" (CharAt var44 398)))
(assert (= "Q" (CharAt var17 706)))
(assert (= "G" (CharAt var26 189)))
(assert (= "_" (CharAt var29 610)))
(assert (= "|" (CharAt var27 727)))
(assert (= "B" (CharAt var49 993)))
(assert (= "[" (CharAt var30 15)))
(assert (= "}" (CharAt var43 782)))
(assert (= "." (CharAt var52 793)))
(assert (= "f" (CharAt var46 929)))
(assert (= "i" (CharAt var44 275)))
(assert (= "\"" (CharAt var59 37)))
(assert (= "N" (CharAt var56 818)))
(assert (= "c" (CharAt var49 981)))
(assert (= "$" (CharAt var8 945)))
(assert (= "q" (CharAt var44 929)))
(assert (= "-" (CharAt var18 207)))
(assert (= "#" (CharAt var51 79)))
(assert (= "4" (CharAt var51 89)))
(assert (= "Z" (CharAt var31 54)))
(assert (= "a" (CharAt var28 128)))
(assert (= "f" (CharAt var54 697)))
(assert (= "`" (CharAt var32 938)))
(assert (= "i" (CharAt var28 488)))
(assert (= "]" (CharAt var48 425)))
(assert (= "F" (CharAt var34 527)))
(assert (= "L" (CharAt var7 783)))
(assert (= "V" (CharAt var29 593)))
(assert (= "8" (CharAt var40 952)))
(assert (= "W" (CharAt var26 483)))
(assert (= "%" (CharAt var49 0)))
(assert (= "@" (CharAt var33 657)))
(assert (= "k" (CharAt var16 942)))
(assert (= "~" (CharAt var3 169)))
(assert (= "B" (CharAt var32 356)))
(assert (= "K" (CharAt var11 671)))
(assert (= ":" (CharAt var38 532)))
(assert (= "0" (CharAt var17 364)))
(assert (= "z" (CharAt var42 527)))
(assert (= "[" (CharAt var42 839)))
(assert (= "l" (CharAt var51 830)))
(assert (= "}" (CharAt var23 719)))
(assert (= "D" (CharAt var9 531)))
(assert (= "r" (CharAt var32 511)))
(assert (= "Q" (CharAt var39 236)))
(assert (= "L" (CharAt var6 489)))
(assert (= "J" (CharAt var21 376)))
(assert (= "S" (CharAt var29 445)))
(assert (= "E" (CharAt var13 996)))
(assert (= "G" (CharAt var54 189)))
(assert (= "*" (CharAt var8 228)))
(assert (= "x" (CharAt var33 450)))
(assert (= ")" (CharAt var28 473)))
(assert (= "P" (CharAt var42 212)))
(assert (= "6" (CharAt var55 345)))
(assert (= "3" (CharAt var59 228)))
(assert (= "~" (CharAt var52 809)))
(assert (= "p" (CharAt var60 822)))
(assert (= "}" (CharAt var17 232)))
(assert (= "y" (CharAt var38 660)))
(assert (= "t" (CharAt var19 258)))
(assert (= "l" (CharAt var25 755)))
(assert (= "\"" (CharAt var54 875)))
(assert (= "`" (CharAt var35 48)))
(assert (= "z" (CharAt var50 862)))
(assert (= "f" (CharAt var46 55)))
(assert (= "(" (CharAt var27 194)))
(assert (= "@" (CharAt var14 888)))
(assert (= "k" (CharAt var25 541)))
(assert (= "X" (CharAt var19 245)))
(assert (= "i" (CharAt var59 636)))
(assert (= "\"" (CharAt var51 512)))
(assert (= "K" (CharAt var58 637)))
(assert (= "]" (CharAt var16 519)))
(assert (= "7" (CharAt var15 872)))
(assert (= "G" (CharAt var5 530)))
(assert (= "$" (CharAt var3 583)))
(assert (= "N" (CharAt var49 701)))
(assert (= "}" (CharAt var60 466)))
(assert (= "N" (CharAt var34 493)))
(assert (= "x" (CharAt var40 385)))
(assert (= "U" (CharAt var36 25)))
(assert (= "1" (CharAt var25 598)))
(assert (= "7" (CharAt var35 216)))
(assert (= "\\" (CharAt var36 18)))
(assert (= "x" (CharAt var54 926)))
(assert (= ">" (CharAt var20 776)))
(assert (= "k" (CharAt var33 362)))
(assert (= "m" (CharAt var54 710)))
(assert (= "M" (CharAt var9 273)))
(assert (= "%" (CharAt var18 436)))
(assert (= "0" (CharAt var37 622)))
(assert (= "W" (CharAt var4 915)))
(assert (= "J" (CharAt var12 598)))
(assert (= "v" (CharAt var20 660)))
(assert (= "," (CharAt var56 545)))
(assert (= "N" (CharAt var57 990)))
(assert (= "b" (CharAt var47 628)))
(assert (= "K" (CharAt var17 665)))
(assert (= "'" (CharAt var56 110)))
(assert (= "e" (CharAt var38 916)))
(assert (= "?" (CharAt var43 73)))
(assert (= "%" (CharAt var22 373)))
(assert (= "_" (CharAt var58 767)))
(assert (= "_" (CharAt var48 10)))
(assert (= "w" (CharAt var17 531)))
(assert (= "," (CharAt var12 782)))
(assert (= "~" (CharAt var33 77)))
(assert (= "W" (CharAt var31 47)))
(assert (= "x" (CharAt var32 547)))
(assert (= "e" (CharAt var59 653)))
(assert (= "X" (CharAt var8 771)))
(assert (= "]" (CharAt var1 932)))
(assert (= "M" (CharAt var55 566)))
(assert (= ")" (CharAt var11 852)))
(assert (= "a" (CharAt var50 564)))
(assert (= "i" (CharAt var16 369)))
(assert (= "q" (CharAt var24 982)))
(assert (= "+" (CharAt var35 700)))
(assert (= "i" (CharAt var53 527)))
(assert (= "0" (CharAt var38 927)))
(assert (= "R" (CharAt var17 924)))
(assert (= "u" (CharAt var14 592)))
(assert (= "'" (CharAt var60 337)))
(assert (= "V" (CharAt var24 427)))
(assert (= "x" (CharAt var40 919)))
(assert (= "K" (CharAt var18 168)))
(assert (= "C" (CharAt var60 180)))
(assert (= "e" (CharAt var38 754)))
(assert (= "|" (CharAt var52 892)))
(assert (= "@" (CharAt var2 742)))
(assert (= "O" (CharAt var25 132)))
(assert (= "0" (CharAt var59 138)))
(assert (= "\\" (CharAt var47 510)))
(assert (= "K" (CharAt var20 248)))
(assert (= "<" (CharAt var40 79)))
(assert (= "q" (CharAt var21 175)))
(assert (= "w" (CharAt var14 467)))
(assert (= "q" (CharAt var52 250)))
(assert (= "b" (CharAt var58 917)))
(assert (= "T" (CharAt var45 825)))
(assert (= "o" (CharAt var44 811)))
(assert (= "S" (CharAt var40 806)))
(assert (= "\\" (CharAt var18 612)))
(assert (= "+" (CharAt var59 821)))
(assert (= "?" (CharAt var33 147)))
(assert (= "E" (CharAt var33 273)))
(assert (= "1" (CharAt var34 851)))
(assert (= "O" (CharAt var8 190)))
(assert (= "x" (CharAt var30 294)))
(assert (= ";" (CharAt var28 930)))
(assert (= "3" (CharAt var53 48)))
(assert (= ";" (CharAt var22 766)))
(assert (= "u" (CharAt var43 463)))
(assert (= "#" (CharAt var20 748)))
(assert (= "$" (CharAt var12 576)))
(assert (= "Y" (CharAt var55 229)))
(assert (= "W" (CharAt var29 553)))
(assert (= "m" (CharAt var49 918)))
(assert (= "u" (CharAt var24 990)))
(assert (= "U" (CharAt var24 806)))
(assert (= "i" (CharAt var1 361)))
(assert (= "@" (CharAt var8 73)))
(assert (= "6" (CharAt var0 426)))
(assert (= "W" (CharAt var27 241)))
(assert (= "|" (CharAt var31 350)))
(assert (= "Y" (CharAt var29 208)))
(assert (= "`" (CharAt var35 34)))
(assert (= "Y" (CharAt var25 165)))
(assert (= "K" (CharAt var16 994)))
(assert (= "E" (CharAt var9 423)))
(assert (= "k" (CharAt var26 937)))
(assert (= ">" (CharAt var15 415)))
(assert (= "t" (CharAt var0 976)))
(assert (= "0" (CharAt var55 604)))
(assert (= "k" (CharAt var22 780)))
(assert (= "U" (CharAt var2 588)))
(assert (= "p" (CharAt var60 962)))
(assert (= "(" (CharAt var42 301)))
(assert (= "1" (CharAt var12 899)))
(assert (= "!" (CharAt var2 562)))
(assert (= "D" (CharAt var30 891)))
(assert (= "@" (CharAt var41 833)))
(assert (= "7" (CharAt var46 222)))
(assert (= "X" (CharAt var50 520)))
(assert (= "&" (CharAt var56 884)))
(assert (= "Y" (CharAt var53 464)))
(assert (= "_" (CharAt var17 251)))
(assert (= "Y" (CharAt var1 504)))
(assert (= "<" (CharAt var59 201)))
(assert (= "k" (CharAt var33 53)))
(assert (= "~" (CharAt var31 630)))
(assert (= "!" (CharAt var18 459)))
(assert (= "0" (CharAt var16 587)))
(assert (= "]" (CharAt var7 778)))
(assert (= "t" (CharAt var45 86)))
(assert (= "D" (CharAt var6 197)))
(assert (= "~" (CharAt var11 573)))
(assert (= "$" (CharAt var15 225)))
(assert (= "e" (CharAt var36 563)))
(assert (= "8" (CharAt var7 565)))
(assert (= "R" (CharAt var48 147)))
(assert (= "\\" (CharAt var51 524)))
(assert (= ":" (CharAt var1 517)))
(assert (= "M" (CharAt var51 90)))
(assert (= "4" (CharAt var11 992)))
(assert (= "$" (CharAt var43 857)))
(assert (= "+" (CharAt var37 419)))
(assert (= "|" (CharAt var46 343)))
(assert (= "{" (CharAt var7 239)))
(assert (= "P" (CharAt var21 938)))
(assert (= "F" (CharAt var43 95)))
(assert (= "(" (CharAt var37 624)))
(assert (= "x" (CharAt var39 53)))
(assert (= "N" (CharAt var0 801)))
(assert (= "f" (CharAt var53 852)))
(assert (= "u" (CharAt var25 954)))
(assert (= "3" (CharAt var10 227)))
(assert (= "l" (CharAt var4 641)))
(assert (= "D" (CharAt var51 7)))
(assert (= "-" (CharAt var5 536)))
(assert (= "E" (CharAt var53 927)))
(assert (= "^" (CharAt var53 650)))
(assert (= "_" (CharAt var27 745)))
(assert (= "r" (CharAt var29 622)))
(assert (= "A" (CharAt var58 432)))
(assert (= "T" (CharAt var22 685)))
(assert (= "-" (CharAt var2 469)))
(assert (= "?" (CharAt var48 394)))
(assert (= "." (CharAt var17 593)))
(assert (= "s" (CharAt var15 98)))
(assert (= "E" (CharAt var54 83)))
(assert (= "Y" (CharAt var29 199)))
(assert (= "}" (CharAt var57 530)))
(assert (= "m" (CharAt var51 450)))
(assert (= "U" (CharAt var25 946)))
(assert (= "k" (CharAt var56 675)))
(assert (= "7" (CharAt var52 425)))
(assert (= "J" (CharAt var56 389)))
(assert (= "N" (CharAt var58 39)))
(assert (= "," (CharAt var0 470)))
(assert (= "*" (CharAt var12 329)))
(assert (= "/" (CharAt var34 466)))
(assert (= "L" (CharAt var10 517)))
(assert (= "L" (CharAt var23 399)))
(assert (= "y" (CharAt var34 115)))
(assert (= "4" (CharAt var0 703)))
(assert (= "k" (CharAt var6 872)))
(assert (= "g" (CharAt var57 855)))
(assert (= "H" (CharAt var37 906)))
(assert (= "6" (CharAt var43 848)))
(assert (= "x" (CharAt var55 481)))
(assert (= "r" (CharAt var59 754)))
(assert (= "#" (CharAt var22 44)))
(assert (= "B" (CharAt var58 826)))
(assert (= "9" (CharAt var17 513)))
(assert (= "[" (CharAt var46 820)))
(assert (= "m" (CharAt var50 607)))
(assert (= "A" (CharAt var47 492)))
(assert (= "Z" (CharAt var55 374)))
(assert (= "F" (CharAt var41 424)))
(assert (= "y" (CharAt var43 328)))
(assert (= "w" (CharAt var26 512)))
(assert (= "p" (CharAt var44 242)))
(assert (= "[" (CharAt var6 414)))
(assert (= ":" (CharAt var2 851)))
(assert (= "2" (CharAt var52 304)))
(assert (= "c" (CharAt var18 487)))
(assert (= "'" (CharAt var56 974)))
(assert (= "g" (CharAt var23 540)))
(assert (= "(" (CharAt var5 606)))
(assert (= "d" (CharAt var6 62)))
(assert (= "B" (CharAt var5 415)))
(assert (= "<" (CharAt var47 425)))
(assert (= "c" (CharAt var51 875)))
(assert (= "3" (CharAt var48 195)))
(assert (= "Y" (CharAt var55 700)))
(assert (= "%" (CharAt var7 371)))
(assert (= "y" (CharAt var3 382)))
(assert (= "\\" (CharAt var56 127)))
(assert (= "8" (CharAt var31 835)))
(assert (= "G" (CharAt var57 532)))
(assert (= "d" (CharAt var28 510)))
(assert (= "w" (CharAt var46 763)))
(assert (= "`" (CharAt var49 397)))
(assert (= "+" (CharAt var12 820)))
(assert (= "*" (CharAt var22 193)))
(assert (= "|" (CharAt var1 412)))
(assert (= "n" (CharAt var37 18)))
(assert (= "x" (CharAt var58 25)))
(assert (= "e" (CharAt var40 335)))
(assert (= "r" (CharAt var27 372)))
(check-sat)